unruly/mzn_data/found_board.dzn
n = 4;
puzzle = [| UNKNOWN,   BLACK,   WHITE, UNKNOWN, UNKNOWN, UNKNOWN, UNKNOWN, UNKNOWN
 | UNKNOWN, UNKNOWN, UNKNOWN, UNKNOWN, UNKNOWN, UNKNOWN, UNKNOWN, UNKNOWN
 | UNKNOWN, UNKNOWN,   BLACK, UNKNOWN, UNKNOWN, UNKNOWN, UNKNOWN, UNKNOWN
 | UNKNOWN, UNKNOWN,   WHITE,   BLACK, UNKNOWN, UNKNOWN, UNKNOWN, UNKNOWN
 | UNKNOWN,   BLACK, UNKNOWN, UNKNOWN, UNKNOWN, UNKNOWN, UNKNOWN, UNKNOWN
 | UNKNOWN, UNKNOWN, UNKNOWN, UNKNOWN, UNKNOWN, UNKNOWN, UNKNOWN, UNKNOWN
 |   BLACK, UNKNOWN, UNKNOWN, UNKNOWN, UNKNOWN, UNKNOWN, UNKNOWN, UNKNOWN
 |   WHITE,   WHITE,   BLACK, UNKNOWN, UNKNOWN,   WHITE, UNKNOWN, UNKNOWN
 |];