unruly/found_board
_BW_____
________
__B_____
__WB____
_B______
________
B_______
WWB__W__